(set-logic QF_S)
(declare-fun var0 () Int)
(declare-fun var1 () String)
(declare-fun var2 () Int)
(declare-fun var3 () String)
(declare-fun var4 () Int)
(declare-fun var5 () String)
(declare-fun var6 () Int)
(declare-fun var7 () String)
(assert (>= var0 26))
(assert (<= (str.to.int (str.at var1 var2)) (str.to.int (str.at var3 var4))))
(assert (< (str.len (str.substr var5 var6 var4)) (str.len (str.at var7 var2))))
(assert (str.in.re var5 re.allchar))
(check-sat)